80
940
5
57
55
86
32
65
0 5
0 33
0 36
0 37
0 39
0 40
0 41
0 45
0 47
0 49
0 50
0 51
0 53
0 56
0 58
0 62
0 63
0 75
0 76
0 77
1 2
1 3
1 4
1 5
1 12
1 18
1 21
1 22
1 23
1 26
1 27
1 31
1 32
1 39
1 42
1 47
1 48
1 49
1 56
1 62
1 64
1 68
1 70
1 71
2 4
2 9
2 15
2 17
2 24
2 25
2 27
2 30
2 34
2 37
2 41
2 45
2 54
2 59
2 60
2 61
2 69
2 70
2 72
2 76
2 77
2 79
3 9
3 11
3 13
3 16
3 17
3 19
3 23
3 26
3 30
3 42
3 45
3 51
3 64
3 65
3 68
3 69
3 71
3 72
3 74
3 75
3 79
4 9
4 11
4 13
4 20
4 29
4 42
4 45
4 49
4 51
4 54
4 55
4 56
4 58
4 62
4 64
4 65
4 69
4 72
4 75
4 76
4 77
5 6
5 9
5 11
5 13
5 15
5 19
5 21
5 24
5 25
5 28
5 29
5 31
5 32
5 38
5 45
5 46
5 47
5 51
5 53
5 62
5 65
5 68
5 70
5 71
6 7
6 9
6 10
6 13
6 15
6 20
6 23
6 25
6 37
6 39
6 40
6 41
6 45
6 47
6 49
6 51
6 55
6 62
6 65
6 66
6 73
7 14
7 15
7 16
7 25
7 27
7 29
7 30
7 31
7 32
7 34
7 43
7 51
7 53
7 62
7 72
7 75
8 15
8 19
8 29
8 37
8 39
8 43
8 45
8 46
8 47
8 50
8 52
8 55
8 58
8 59
8 60
8 62
8 74
8 76
8 79
9 11
9 12
9 16
9 18
9 21
9 22
9 28
9 29
9 33
9 34
9 40
9 44
9 45
9 46
9 49
9 53
9 56
9 61
9 63
9 64
9 65
9 75
9 77
10 11
10 15
10 20
10 21
10 23
10 24
10 25
10 32
10 33
10 35
10 36
10 37
10 38
10 51
10 52
10 53
10 57
10 63
10 66
10 68
10 76
10 77
10 79
11 12
11 14
11 18
11 25
11 26
11 29
11 30
11 32
11 38
11 40
11 44
11 48
11 54
11 55
11 58
11 59
11 63
11 64
11 69
11 71
11 73
11 74
11 75
11 78
11 79
12 16
12 18
12 21
12 32
12 33
12 35
12 36
12 37
12 39
12 46
12 53
12 55
12 59
12 60
12 65
12 69
12 70
12 76
13 14
13 17
13 18
13 19
13 24
13 26
13 29
13 31
13 35
13 37
13 43
13 47
13 49
13 52
13 54
13 55
13 56
13 59
13 61
13 62
13 64
13 69
13 70
13 71
13 72
13 78
13 79
14 18
14 24
14 26
14 32
14 34
14 35
14 36
14 39
14 40
14 50
14 51
14 52
14 56
14 57
14 62
14 63
14 64
14 67
14 68
14 70
14 73
14 75
14 77
15 20
15 21
15 23
15 24
15 25
15 36
15 43
15 44
15 47
15 51
15 56
15 60
15 63
15 65
15 66
15 67
15 72
15 74
15 75
16 17
16 18
16 23
16 30
16 32
16 34
16 37
16 38
16 40
16 42
16 44
16 46
16 47
16 48
16 60
16 72
16 73
16 74
16 76
16 78
16 79
17 36
17 39
17 50
17 57
17 58
17 59
17 60
17 61
17 63
17 65
17 66
17 68
17 73
17 74
17 76
17 78
17 79
18 22
18 23
18 25
18 27
18 29
18 32
18 34
18 35
18 36
18 38
18 40
18 45
18 46
18 49
18 54
18 57
18 58
18 59
18 65
18 66
18 69
18 72
18 77
18 78
19 21
19 22
19 24
19 26
19 28
19 31
19 33
19 37
19 38
19 40
19 45
19 58
19 59
19 60
19 63
19 64
19 73
19 74
19 76
20 27
20 31
20 34
20 38
20 40
20 46
20 54
20 60
20 61
20 62
20 64
20 72
20 75
21 26
21 29
21 30
21 38
21 39
21 42
21 43
21 45
21 50
21 51
21 53
21 64
21 73
22 23
22 25
22 29
22 34
22 36
22 38
22 41
22 45
22 51
22 54
22 58
22 67
22 68
22 71
22 73
23 33
23 36
23 38
23 39
23 40
23 47
23 48
23 49
23 56
23 57
23 59
23 61
23 62
23 65
23 70
23 71
23 73
23 77
23 79
24 29
24 32
24 39
24 42
24 43
24 45
24 46
24 49
24 54
24 59
24 60
24 61
24 66
24 70
24 72
24 76
25 27
25 30
25 32
25 33
25 34
25 35
25 36
25 38
25 44
25 46
25 50
25 65
25 66
25 75
25 77
26 28
26 31
26 35
26 40
26 44
26 46
26 47
26 50
26 52
26 54
26 55
26 61
26 65
26 73
26 76
26 77
26 79
27 28
27 29
27 33
27 48
27 55
27 58
27 60
27 64
27 66
27 72
27 73
27 77
28 31
28 32
28 40
28 41
28 45
28 49
28 55
28 56
28 60
28 65
28 67
28 70
28 71
28 75
28 76
28 77
28 78
29 32
29 35
29 36
29 37
29 39
29 41
29 48
29 51
29 52
29 55
29 60
29 61
29 67
29 68
29 70
29 78
30 36
30 40
30 44
30 45
30 53
30 56
30 57
30 60
30 62
30 64
30 66
31 32
31 34
31 36
31 38
31 40
31 54
31 60
31 65
31 66
31 67
31 69
31 76
31 77
31 79
32 35
32 36
32 37
32 40
32 44
32 45
32 46
32 47
32 57
32 60
32 62
32 63
32 68
32 69
32 71
32 72
32 73
32 74
32 77
32 78
33 35
33 37
33 40
33 49
33 59
33 61
33 65
33 67
33 75
33 76
33 77
34 35
34 38
34 43
34 47
34 48
34 58
34 63
34 65
34 67
34 69
34 70
34 71
34 72
34 74
34 77
34 78
35 39
35 43
35 56
35 57
35 58
35 64
35 65
35 66
35 71
35 72
35 75
35 79
36 39
36 47
36 50
36 57
36 59
36 63
36 67
36 75
36 78
37 39
37 42
37 43
37 46
37 49
37 53
37 54
37 61
37 62
37 63
37 64
37 67
37 70
37 71
37 72
37 74
37 76
37 77
38 42
38 43
38 47
38 48
38 49
38 53
38 56
38 59
38 65
38 69
38 73
38 76
38 77
38 78
38 79
39 43
39 44
39 49
39 53
39 54
39 55
39 57
39 61
39 63
39 65
39 68
39 75
39 77
40 44
40 45
40 46
40 47
40 54
40 57
40 58
40 60
40 63
40 64
40 66
40 69
40 71
40 74
40 76
41 42
41 43
41 48
41 50
41 51
41 55
41 62
41 67
41 68
41 70
41 72
41 76
42 44
42 45
42 51
42 52
42 54
42 55
42 62
42 70
42 71
42 74
42 76
43 44
43 45
43 47
43 62
43 67
43 72
43 76
44 59
44 64
44 78
45 46
45 50
45 51
45 54
45 56
45 58
45 62
45 65
45 71
45 72
45 74
45 75
45 79
46 49
46 58
46 60
46 65
46 72
46 76
46 77
46 79
47 49
47 51
47 55
47 56
47 74
47 76
47 77
47 79
48 51
48 53
48 56
48 60
48 62
48 68
48 70
48 74
48 76
48 77
48 78
49 58
49 73
49 76
49 78
50 53
50 55
50 56
50 58
50 60
50 61
50 65
50 67
50 70
50 71
50 73
50 75
50 76
51 56
51 58
51 61
51 62
51 68
51 74
51 75
51 76
51 77
52 54
52 57
52 64
52 67
52 70
52 75
53 68
53 70
53 71
53 73
53 75
54 61
54 62
54 67
54 71
54 74
54 76
55 57
55 60
55 67
55 69
55 71
55 72
55 74
56 60
56 61
56 65
56 68
56 69
56 74
56 76
56 79
57 59
57 60
57 63
57 71
58 60
58 78
58 79
59 62
59 66
59 67
59 68
59 69
59 70
59 71
59 72
59 74
59 75
59 76
59 78
59 79
60 62
60 64
60 65
60 69
60 71
60 76
60 78
61 75
61 77
62 63
62 64
62 65
62 67
62 71
62 76
62 78
62 79
63 68
63 70
63 75
64 66
65 70
65 72
65 75
65 76
65 78
65 79
66 69
66 70
66 71
66 73
66 76
67 71
67 72
67 74
67 75
67 77
67 78
68 71
68 73
68 78
69 73
69 76
69 78
69 79
70 73
70 77
72 73
72 79
73 77
73 79
75 78
75 79
76 77
78 79
10 36 23 20 21 54 31 66 40 18 78 59 33 43 0 26
9 79 60 70 72 32 55 35 77 39 48 15 47 5 64 76
25 52 22 62 56 7 67 44 6 74 68 42 58 24 50 19
53 29 14 71 8 61 12 3 2 65 1 49 34 69 11 63
17 51 45 41 16 28 13 37 46 38 57 73 30 75 27 4
